webassembly/ejemplos_dzn/folder5_json_84.dzn
TERM = { '.', 'in_1', 'local_0', 'local_1', 'in_2', 'in_3', 's(0)', 'in_0'};
null = '.';
s = 5;
n = 9;
ndeps = 0;
max_registers_sz = 5;
NR = 2;
registers = [|'local_0', 'in_1', |'local_1', 's(0)'|];
dependencies = [| |];
GET_ENUM = { GET1, GET2, GET3, GET4, GET5, GET6, GET7};
SET_ENUM = { SET1, SET2, SET3, SET4, SET5, SET6, SET7};
TEE_ENUM = { TEE1, TEE2, TEE3, TEE4, TEE5, TEE6, TEE7};
N = 1;
OP = { 'i32.add_0' };
in_ops = [2 ];
out_ops = [1 ];
in1 = ['in_2' ];
in2 = ['in_3' ];
in3 = ['.' ];
out1 = ['s(0)' ];
out2 = ['.' ];
out3 = ['.' ];
comm = [true ];
gas = [1 ];
sz = [1 ];
stor = [false ];
lb = [ 1 ];
ub = [ 5 ];
startstack = [ 'in_0', 'in_1', 'in_2', 'in_3', null, null, null, null, null ];
endstack = [ 'in_1', null, null, null, null, null, null, null, null ];
