webassembly/ejemplos_results/5/folder5_json_84.txt
value = 5;
fgas = [2, 1, 1, 1, 1];
fsize = [1, 1, 1, 1, 1];
states = 
[|   in_0, in_1, in_2, in_3, '.', '.', '.', '.', '.'
 |   in_1, in_2, in_3,  '.', '.', '.', '.', '.', '.'
 |   in_2, in_3,  '.',  '.', '.', '.', '.', '.', '.'
 | 's(0)', in_1,  '.',  '.', '.', '.', '.', '.', '.'
 |   in_1,  '.',  '.',  '.', '.', '.', '.', '.', '.'
 |   in_1,  '.',  '.',  '.', '.', '.', '.', '.', '.'
 |];
register_states = 
[| local_0, local_1, '.', '.', '.', '.', '.'
 | local_0, local_1, '.', '.', '.', '.', '.'
 |    in_1, local_1, '.', '.', '.', '.', '.'
 |    in_1, local_1, '.', '.', '.', '.', '.'
 |    in_1,  's(0)', '.', '.', '.', '.', '.'
 |    in_1,  's(0)', '.', '.', '.', '.', '.'
 |];
program = [POP, S(SET1), O('i32.add_0'), S(SET2), TEE(TEE1)];
% time elapsed: 0.05 s
----------
value = 4;
fgas = [2, 1, 1, 1, 0];
fsize = [1, 1, 1, 1, 1];
states = 
[|   in_0, in_1, in_2, in_3, '.', '.', '.', '.', '.'
 |   in_1, in_2, in_3,  '.', '.', '.', '.', '.', '.'
 |   in_2, in_3,  '.',  '.', '.', '.', '.', '.', '.'
 | 's(0)', in_1,  '.',  '.', '.', '.', '.', '.', '.'
 |   in_1,  '.',  '.',  '.', '.', '.', '.', '.', '.'
 |   in_1,  '.',  '.',  '.', '.', '.', '.', '.', '.'
 |];
register_states = 
[| local_0, local_1, '.', '.', '.', '.', '.'
 | local_0, local_1, '.', '.', '.', '.', '.'
 |    in_1, local_1, '.', '.', '.', '.', '.'
 |    in_1, local_1, '.', '.', '.', '.', '.'
 |    in_1,  's(0)', '.', '.', '.', '.', '.'
 |    in_1,  's(0)', '.', '.', '.', '.', '.'
 |];
program = [POP, S(SET1), O('i32.add_0'), S(SET2), NOP];
% time elapsed: 0.05 s
----------
==========
% time elapsed: 0.05 s
% [value > 3]
